##TITLE=Glucose
##JCAMP-DX=4.24
##DATA TYPE=INFRARED SPECTRUM
##OWNER=Collection (C) 2005 copyright by the U.S. Secretary of Commerce
on behalf of the United States of America. All rights reserved.
##CAS REGISTRY NO=50-99-7
##$NIST ID=C50997
##$NIST SOURCE=THZ-IR
##STATE=Solid (powder)
##SAMPLE DESCRIPTION=5.7 mg + 113.2 mg polyethylene spectrograde powder
##XUNITS=WAVENUMBERS
##YUNITS=TRANSMITTANCE
##XFACTOR=1.0
##YFACTOR=1.0
##FIRSTX=41.67
##LASTX=399.16
##FIRSTY=1.047777324
##MAXX=399.16
##MINX=41.67
##MAXY=1.04778
##MINY=0.152349
##NPOINTS=430
##XYPOINTS=
41.67 1.047777324
42.50 1.028824719
43.33 1.008786545
44.17 0.986648652
45.00 0.948105453
45.83 0.902257551
46.67 0.870658969
47.50 0.851067949
48.33 0.860958007
49.17 0.890847438
50.00 0.931386289
50.83 0.957304975
51.67 0.972318941
52.50 0.975133868
53.33 0.96572917
54.17 0.954119682
55.00 0.940831219
55.83 0.930172646
56.67 0.923573534
57.50 0.921640259
58.33 0.918772559
59.17 0.915417769
60.00 0.910108927
60.83 0.902006959
61.67 0.893357247
62.50 0.884355843
63.33 0.875178871
64.17 0.865966106
65.00 0.857302725
65.83 0.844723836
66.67 0.828243992
67.50 0.812847119
68.33 0.799821503
69.17 0.790146738
70.00 0.786908878
70.83 0.789635051
71.67 0.789478716
72.50 0.785788004
73.33 0.779583427
74.17 0.771305798
75.00 0.762141474
75.83 0.754448811
76.67 0.747258338
77.50 0.738102394
78.33 0.726444805
79.17 0.710107177
80.00 0.689550172
80.83 0.666044119
81.67 0.641030243
82.50 0.616094896
83.33 0.59761221
84.17 0.585490457
85.00 0.572934251
85.83 0.560016345
86.67 0.545015038
87.50 0.530083348
88.33 0.517223745
89.17 0.525010922
90.00 0.550586495
90.83 0.581182199
91.67 0.616945302
92.50 0.64734583
93.33 0.666892357
94.17 0.673107719
95.00 0.664487689
95.83 0.643392453
96.67 0.623269027
97.50 0.604280522
98.33 0.598654418
99.17 0.609553265
100.00 0.638072355
100.83 0.670015241
101.67 0.699617123
102.50 0.713687037
103.33 0.712284078
104.17 0.705220701
105.00 0.693645987
105.83 0.679618845
106.67 0.666608871
107.50 0.656834793
108.33 0.643839586
109.17 0.627589431
110.00 0.615634053
110.83 0.608878057
111.67 0.608149128
112.50 0.614016645
113.33 0.624944325
114.17 0.632239638
115.00 0.635549234
115.83 0.634826283
116.67 0.629604323
117.50 0.619921054
118.33 0.607773408
119.17 0.592680035
120.00 0.574265809
120.83 0.553014288
121.67 0.529528322
122.50 0.508435986
123.33 0.490096862
124.17 0.47443832
125.00 0.461162619
125.83 0.45615384
126.67 0.458739888
127.50 0.473202697
128.33 0.497953637
129.17 0.51825772
130.00 0.533808381
130.83 0.544512774
131.67 0.554576638
132.50 0.562474803
133.33 0.571428765
134.17 0.580520487
135.00 0.584170806
135.83 0.582671836
136.67 0.575974338
137.50 0.565032975
138.33 0.549004335
139.17 0.534646874
140.00 0.524091682
140.83 0.515914548
141.67 0.510155462
142.50 0.505685469
143.33 0.496985182
144.17 0.483859874
145.00 0.468625612
145.83 0.45083353
146.67 0.430725738
147.50 0.407533778
148.33 0.380487603
149.17 0.350101867
150.00 0.318184029
150.83 0.292296273
151.67 0.279720855
152.50 0.286155006
153.33 0.308611861
154.17 0.336934217
155.00 0.368854569
155.83 0.403587542
156.67 0.434767275
157.50 0.461443776
158.33 0.48506106
159.17 0.502074597
160.00 0.512542761
160.83 0.517573393
161.67 0.518171167
162.50 0.515744232
163.33 0.510783694
164.17 0.504035437
165.00 0.495825636
165.83 0.486706922
166.67 0.477018848
167.50 0.467051194
168.33 0.455760013
169.16 0.442813036
170.00 0.429810425
170.83 0.417701782
171.66 0.406401641
172.50 0.396061692
173.33 0.386386365
174.16 0.37453618
175.00 0.359856256
175.83 0.345194814
176.66 0.331082162
177.50 0.318476586
178.33 0.308651401
179.16 0.30220474
180.00 0.297699219
180.83 0.295111522
181.66 0.296119346
182.50 0.300239721
183.33 0.307076623
184.16 0.315783259
185.00 0.325459657
185.83 0.333610892
186.66 0.340619455
187.50 0.347792535
188.33 0.354323173
189.16 0.36009413
190.00 0.364945288
190.83 0.367246709
191.66 0.367049353
192.50 0.364341481
193.33 0.360754939
194.16 0.356309758
195.00 0.351934535
195.83 0.348269585
196.66 0.344176617
197.50 0.339592263
198.33 0.334339731
199.16 0.328472807
200.00 0.321773459
200.83 0.313789141
201.66 0.303618107
202.50 0.295834936
203.33 0.292370582
204.16 0.293819025
205.00 0.294540467
205.83 0.294801301
206.66 0.293115546
207.50 0.288529066
208.33 0.284781127
209.16 0.282163981
210.00 0.280919563
210.83 0.278163185
211.66 0.274126697
212.50 0.268314948
213.33 0.260260955
214.16 0.251795927
215.00 0.243466826
215.83 0.235851412
216.66 0.227506558
217.50 0.218825592
218.33 0.210509265
219.16 0.202388703
220.00 0.195217286
220.83 0.189179586
221.66 0.185116122
222.50 0.183460874
223.33 0.184471006
224.16 0.186412807
225.00 0.189692578
225.83 0.195040376
226.66 0.202573341
227.50 0.214262939
228.33 0.228488247
229.16 0.243136684
230.00 0.257035465
230.83 0.270713318
231.66 0.284458955
232.50 0.298536864
233.33 0.312762825
234.16 0.326811708
235.00 0.340262611
235.83 0.352821085
236.66 0.364317078
237.50 0.37416679
238.33 0.38218879
239.16 0.388774384
240.00 0.393932049
240.83 0.397744311
241.66 0.400502131
242.50 0.402340814
243.33 0.402829866
244.16 0.402094204
245.00 0.400644161
245.83 0.398702007
246.66 0.396540135
247.50 0.394951895
248.33 0.39387752
249.16 0.393192174
250.00 0.393062295
250.83 0.390465561
251.66 0.385234248
252.50 0.377084612
253.33 0.368854694
254.16 0.360797326
255.00 0.355150493
255.83 0.353096399
256.66 0.350997011
257.50 0.348236935
258.33 0.345973176
259.16 0.344211172
260.00 0.343001835
260.83 0.342501754
261.66 0.342629913
262.50 0.342328213
263.33 0.341465948
264.16 0.339524036
265.00 0.336394521
265.83 0.332082609
266.66 0.327530742
267.50 0.323245945
268.33 0.319167815
269.16 0.315533858
270.00 0.314255262
270.83 0.315723273
271.66 0.320117546
272.50 0.327731724
273.33 0.338005496
274.16 0.347771183
275.00 0.356755423
275.83 0.362495078
276.66 0.364661224
277.50 0.362875637
278.33 0.359980099
279.16 0.355653596
280.00 0.349788244
280.83 0.343041141
281.66 0.334550356
282.50 0.324909646
283.33 0.314712791
284.16 0.305254417
285.00 0.296922206
285.83 0.289421861
286.66 0.282743772
287.50 0.279406958
288.33 0.280001906
289.16 0.284997888
290.00 0.294122235
290.83 0.306361744
291.66 0.319274309
292.50 0.332232965
293.33 0.344002626
294.16 0.35433968
295.00 0.363490097
295.83 0.371280346
296.66 0.377577519
297.50 0.38267392
298.33 0.38674514
299.16 0.389007378
300.00 0.389845589
300.83 0.391284208
301.66 0.394628466
302.50 0.401037076
303.33 0.413500618
304.16 0.429383306
305.00 0.441831358
305.83 0.450938989
306.66 0.457116098
307.50 0.460583729
308.33 0.46164288
309.16 0.461617258
310.00 0.460583769
310.83 0.458295825
311.66 0.454971575
312.50 0.45150083
313.33 0.448033544
314.16 0.444693322
315.00 0.441078686
315.83 0.437331622
316.66 0.433670072
317.50 0.430031748
318.33 0.425960342
319.16 0.421308239
320.00 0.415871839
320.83 0.409386427
321.66 0.401676436
322.50 0.392119538
323.33 0.380810575
324.16 0.369517758
325.00 0.359382979
325.83 0.350567633
326.66 0.343537627
327.50 0.33846627
328.33 0.338839762
329.16 0.344074432
330.00 0.350114672
330.83 0.356533597
331.66 0.361155124
332.50 0.363412642
333.33 0.36286465
334.16 0.360566286
335.00 0.356275394
335.83 0.351347421
336.66 0.346265699
337.50 0.340219538
338.33 0.33328085
339.16 0.325447264
340.00 0.317206628
340.83 0.30867405
341.66 0.300701839
342.50 0.29365254
343.33 0.287483747
344.16 0.282414799
345.00 0.278548723
345.83 0.276068973
346.66 0.274915745
347.50 0.274680586
348.33 0.275316207
349.16 0.276666083
350.00 0.278629883
350.83 0.281064701
351.66 0.283944238
352.50 0.286978416
353.33 0.289827053
354.16 0.292249627
355.00 0.29434915
355.83 0.296157892
356.66 0.296349071
357.50 0.294787891
358.33 0.29141747
359.16 0.287761561
360.00 0.283839589
360.83 0.27995431
361.66 0.276256138
362.50 0.272388325
363.33 0.268209992
364.16 0.26359927
365.00 0.257957098
365.83 0.251285216
366.66 0.244483461
367.50 0.237579868
368.33 0.230444718
369.16 0.223112602
370.00 0.215587816
370.83 0.207655716
371.66 0.199455915
372.50 0.190335752
373.33 0.180367486
374.16 0.170029112
375.00 0.160548315
375.83 0.153319732
376.66 0.152349355
377.50 0.157181732
378.33 0.166645718
379.16 0.180767724
380.00 0.193400673
380.83 0.203334913
381.66 0.209441025
382.50 0.212959569
383.33 0.213316537
384.16 0.212372642
385.00 0.210274907
385.83 0.207206274
386.66 0.203356015
387.50 0.198894502
388.33 0.192144759
389.16 0.184384556
390.00 0.180597902
390.83 0.180817496
391.66 0.188728322
392.50 0.205278148
393.33 0.22348395
394.16 0.240699455
395.00 0.254450194
395.83 0.261510878
396.66 0.260627595
397.50 0.256332392
398.33 0.248930707
399.16 0.237795929
##END=
